CPXPARAM_MIP_Cuts_Cliques#P13#0#CPXPARAM_MIP_Cuts_MIRCut#P20#2#3.227766#0.595479
CPXPARAM_MIP_Cuts_Cliques#P13#0#CPXPARAM_MIP_Strategy_NodeSelect#P39#2#2.650830#0.489042
CPXPARAM_MIP_Cuts_Cliques#P13#3#CPXPARAM_MIP_Strategy_NodeSelect#P39#1#2.149190#0.396496
CPXPARAM_MIP_Cuts_Cliques#P13#3#CPXPARAM_MIP_Strategy_NodeSelect#P39#2#2.023563#0.373320
CPXPARAM_MIP_Cuts_Cliques#P13#3#CPXPARAM_MIP_Strategy_NodeSelect#P39#3#0.544223#0.100402
CPXPARAM_MIP_Cuts_MIRCut#P20#2#CPXPARAM_MIP_Strategy_NodeSelect#P39#1#0.544200#0.100398
CPXPARAM_MIP_Cuts_MIRCut#P20#2#CPXPARAM_MIP_Strategy_NodeSelect#P39#2#5.420457#1.000000
CPXPARAM_MIP_Cuts_MIRCut#P20#2#CPXPARAM_MIP_Strategy_NodeSelect#P39#3#0.544217#0.100401
